(set-option :timeout 5000)
(declare-fun tvw_x () Int)
(declare-fun tvw_y () Int)
(assert (>  tvw_x   1 ) )
(assert (not  (>  tvw_y   3 ) ) )
(assert (<  tvw_x   0 ) )
(assert (=  tvw_y   (+  2   1 ) ) )
(check-sat)(get-model)
